37
[[-1, 0, 0, 0, 0, 0, 0, 0, 0, 0, 0, 0, 33783, 13765, 0, 0, 45121, 0, 11316, 45629, 0, 35244, 0, 17448, 36108, 0, 0, 0, 18759, 0, 45732, 0, 0, 0, 41702, 0, 0],[0, -1, 0, 0, 0, 0, 0, 30038, 0, 0, 42177, 0, 39131, 0, 0, 0, 0, 44278, 0, 4345, 0, 0, 0, 0, 41008, 36842, 0, 0, 0, 0, 0, 0, 39147, 26402, 28051, 0, 19267],[0, 0, -1, 0, 0, 0, 0, 0, 0, 0, 40816, 23433, 0, 0, 284964615, 0, 0, 0, 20522, 0, 44014, 0, 0, 0, 22664, 0, 8493, 0, 0, 37916, 0, 0, 13831, 0, 0, 0, 45573],[0, 0, 0, -1, 0, 0, 0, 21682, 0, 0, 0, 0, 0, 0, 21709, 0, 7112, 0, 45297, 33479, 0, 0, 0, 0, 0, 0, 0, 0, 0, 44184, 0, 0, 0, 0, 37597, 0, 0],[0, 0, 0, 0, -1, 0, 24462, 431322840, 0, 0, 0, 0, 0, 0, 11446, 0, 0, 0, 0, 0, 0, 39732, 0, 0, 19217, 44008, 0, 0, 0, 0, 0, 0, 0, 0, 0, 0, 12253],[0, 0, 0, 0, 0, -1, 0, 38781, 31220, 0, 0, 0, 0, 31988, 0, 37003, 29936, 0, 34302, 0, 0, 0, 0, 18247, 0, 0, 0, 0, 27110, 0, 0, 0, 12238, 0, 0, 43955, 41235],[0, 0, 0, 0, 24462, 0, -1, 22988, 33558, 0, 0, 0, 37085, 0, 43215, 0, 0, 0, 0, 0, 0, 35111, 34228, 0, 0, 0, 40061, 35118, 0, 0, 0, 0, 31451, 0, 0, 0, 0],[0, 30038, 0, 21682, 431322840, 38781, 22988, -1, 0, 0, 0, 0, 0, 0, 10112, 0, 23370, 0, 28725, 0, 0, 0, 33494, 0, 0, 0, 0, 0, 38250, 0, 0, 22809, 45680, 0, 0, 0, 0],[0, 0, 0, 0, 0, 31220, 33558, 0, -1, 0, 0, 0, 34599, 0, 0, 0, 0, 0, 0, 0, 0, 19959, 0, 0, 0, 39966, 38059, 0, 0, 36293, 0, 0, 0, 26594, 0, 46023, 0],[0, 0, 0, 0, 0, 0, 0, 0, 0, -1, 0, 0, 0, 37847, 0, 0, 0, 0, 0, 0, 0, 0, 38134, 39072, 0, 0, 12606, 0, 0, 24310, 0, 0, 0, 0, 0, 0, 0],[0, 42177, 40816, 0, 0, 0, 0, 0, 0, 0, -1, 0, 0, 0, 17876, 0, 38869, 0, 0, 1691188862, 0, 0, 0, 0, 41530, 1115513198, 0, 33240, 34512, 0, 0, 0, 0, 44250, 0, 0, 0],[0, 0, 23433, 0, 0, 0, 0, 0, 0, 0, 0, -1, 0, 0, 0, 31974, 25471, 0, 34617, 25198, 0, 0, 0, 0, 0, 0, 31912, 0, 0, 0, 0, 0, 0, 0, 0, 0, 0],[33783, 39131, 0, 0, 0, 0, 37085, 0, 34599, 0, 0, 0, -1, 0, 0, 0, 0, 0, 44213, 0, 0, 0, 0, 0, 0, 0, 36030, 40983, 0, 0, 0, 0, 0, 0, 0, 0, 0],[13765, 0, 0, 0, 0, 31988, 0, 0, 0, 37847, 0, 0, 0, -1, 0, 0, 46304, 0, 36834, 0, 0, 0, 31595, 0, 32814, 0, 0, 0, 0, 0, 0, 0, 18636, 0, 31667, 44029, 0],[0, 0, 284964615, 21709, 11446, 0, 43215, 10112, 0, 0, 17876, 0, 0, 0, -1, 0, 44562, 0, 0, 0, 0, 0, 20569, 30469, 0, 0, 0, 0, 0, 0, 0, 0, 0, 37456, 40107, 0, 0],[0, 0, 0, 0, 0, 37003, 0, 0, 0, 0, 0, 31974, 0, 0, 0, -1, 0, 0, 0, 0, 0, 0, 0, 24687, 0, 0, 33887, 0, 28098, 0, 0, 0, 0, 20171, 0, 0, 0],[45121, 0, 0, 7112, 0, 29936, 0, 23370, 0, 0, 38869, 25471, 0, 46304, 44562, 0, -1, 0, 7502, 42913, 0, 0, 0, 0, 0, 0, 0, 0, 0, 0, 0, 0, 0, 0, 37188, 0, 39092],[0, 44278, 0, 0, 0, 0, 0, 0, 0, 0, 0, 0, 0, 0, 0, 0, 0, -1, 0, 0, 0, 0, 0, 0, 0, 0, 0, 0, 0, 0, 0, 21259, 0, 0, 0, 0, 0],[11316, 0, 20522, 45297, 0, 34302, 0, 28725, 0, 0, 0, 34617, 44213, 36834, 0, 0, 7502, 0, -1, 0, 23173, 0, 0, 0, 0, 0, 0, 0, 0, 0, 0, 700485762, 0, 16612, 15534, 43990, 0],[45629, 4345, 0, 33479, 0, 0, 0, 0, 0, 0, 1691188862, 25198, 0, 0, 0, 0, 42913, 0, 0, -1, 0, 17338, 0, 0, 0, 11050, 0, 17931, 0, 0, 0, 45095, 40946, 0, 0, 0, 0],[0, 0, 44014, 0, 0, 0, 0, 0, 0, 0, 0, 0, 0, 0, 0, 0, 0, 0, 23173, 0, -1, 0, 0, 0, 0, 0, 0, 10591, 0, 0, 0, 25510, 0, 0, 0, 0, 0],[35244, 0, 0, 0, 39732, 0, 35111, 0, 19959, 0, 0, 0, 0, 0, 0, 0, 0, 0, 0, 17338, 0, -1, 0, 0, 0, 0, 21902, 0, 0, 0, 0, 28499, 0, 0, 34952, 18772, 0],[0, 0, 0, 0, 0, 0, 34228, 33494, 0, 38134, 0, 0, 0, 31595, 20569, 0, 0, 0, 0, 0, 0, 0, -1, 0, 0, 0, 41563, 0, 0, 0, 0, 0, 0, 0, 39098, 0, 0],[17448, 0, 0, 0, 0, 18247, 0, 0, 0, 39072, 0, 0, 0, 0, 30469, 24687, 0, 0, 0, 0, 0, 0, 0, -1, 33382, 0, 41097, 0, 0, 35096, 0, 43267, 0, 0, 0, 0, 0],[36108, 41008, 22664, 0, 19217, 0, 0, 0, 0, 0, 41530, 0, 0, 32814, 0, 0, 0, 0, 0, 0, 0, 0, 0, 33382, -1, 0, 41527, 41064, 31863, 1503127746, 0, 0, 0, 0, 0, 0, 1730541227],[0, 36842, 0, 0, 44008, 0, 0, 0, 39966, 0, 1115513198, 0, 0, 0, 0, 0, 0, 0, 0, 11050, 0, 0, 0, 0, 0, -1, 0, 0, 32130, 0, 0, 0, 0, 0, 0, 33176, 33800],[0, 0, 8493, 0, 0, 0, 40061, 0, 38059, 12606, 0, 31912, 36030, 0, 0, 33887, 0, 0, 0, 0, 0, 21902, 41563, 41097, 41527, 0, -1, 0, 0, 17553, 0, 37000, 0, 0, 0, 0, 0],[0, 0, 0, 0, 0, 0, 35118, 0, 0, 0, 33240, 0, 40983, 0, 0, 0, 0, 0, 0, 17931, 10591, 0, 0, 0, 41064, 0, 0, -1, 32683, 45440, 0, 27847, 0, 22914, 0, 0, 0],[18759, 0, 0, 0, 0, 27110, 0, 38250, 0, 0, 34512, 0, 0, 0, 0, 28098, 0, 0, 0, 0, 0, 0, 0, 0, 31863, 32130, 0, 32683, -1, 0, 25932, 33235, 20577, 26287, 0, 0, 28085],[0, 0, 37916, 44184, 0, 0, 0, 0, 36293, 24310, 0, 0, 0, 0, 0, 0, 0, 0, 0, 0, 0, 0, 0, 35096, 1503127746, 0, 17553, 45440, 0, -1, 0, 0, 40267, 13841, 0, 0, 0],[45732, 0, 0, 0, 0, 0, 0, 0, 0, 0, 0, 0, 0, 0, 0, 0, 0, 0, 0, 0, 0, 0, 0, 0, 0, 0, 0, 0, 25932, 0, -1, 0, 0, 27018, 27963, 0, 0],[0, 0, 0, 0, 0, 0, 0, 22809, 0, 0, 0, 0, 0, 0, 0, 0, 0, 21259, 700485762, 45095, 25510, 28499, 0, 43267, 0, 0, 37000, 27847, 33235, 0, 0, -1, 38637, 0, 0, 19575, 0],[0, 39147, 13831, 0, 0, 12238, 31451, 45680, 0, 0, 0, 0, 0, 18636, 0, 0, 0, 0, 0, 40946, 0, 0, 0, 0, 0, 0, 0, 0, 20577, 40267, 0, 38637, -1, 26729, 0, 0, 0],[0, 26402, 0, 0, 0, 0, 0, 0, 26594, 0, 44250, 0, 0, 0, 37456, 20171, 0, 0, 16612, 0, 0, 0, 0, 0, 0, 0, 0, 22914, 26287, 13841, 27018, 0, 26729, -1, 0, 0, 19885],[41702, 28051, 0, 37597, 0, 0, 0, 0, 0, 0, 0, 0, 0, 31667, 40107, 0, 37188, 0, 15534, 0, 0, 34952, 39098, 0, 0, 0, 0, 0, 0, 0, 27963, 0, 0, 0, -1, 31436, 27973],[0, 0, 0, 0, 0, 43955, 0, 0, 46023, 0, 0, 0, 0, 44029, 0, 0, 0, 0, 43990, 0, 0, 18772, 0, 0, 0, 33176, 0, 0, 0, 0, 0, 19575, 0, 0, 31436, -1, 34730],[0, 19267, 45573, 0, 12253, 41235, 0, 0, 0, 0, 0, 0, 0, 0, 0, 0, 39092, 0, 0, 0, 0, 0, 0, 0, 1730541227, 33800, 0, 0, 28085, 0, 0, 0, 0, 19885, 27973, 34730, -1]]